n_res = 4;
rc = [ 20, 19, 20, 15 ];
n_tasks = 30;
d = [ 8, 3, 5, 7, 4, 8, 8, 4, 6, 8, 8, 2, 10, 9, 8, 7, 7, 3, 9, 4, 2, 4, 6, 2, 10, 9, 10, 6, 2, 6 ];
rr = [| 20, 20, 20, 20, 20, 20, 20, 20, 20, 20, 20, 20, 20, 20, 20, 20, 20, 20, 20, 20, 20, 20, 20, 20, 20, 20, 20, 20, 20, 20
      | 19, 19, 19, 19, 19, 19, 19, 19, 19, 19, 19, 19, 19, 19, 19, 19, 19, 19, 19, 19, 19, 19, 19, 19, 19, 19, 19, 19, 19, 19
      | 20, 20, 20, 20, 20, 20, 20, 20, 20, 20, 20, 20, 20, 20, 20, 20, 20, 20, 20, 20, 20, 20, 20, 20, 20, 20, 20, 20, 20, 20
      | 15, 15, 15, 15, 15, 15, 15, 15, 15, 15, 15, 15, 15, 15, 15, 15, 15, 15, 15, 15, 15, 15, 15, 15, 15, 15, 15, 15, 15, 15|];
suc = [ { 5, 9 },
       { 4, 6, 15 },
       { 5, 7, 8 },
       { 5, 8, 14 },
       { 11, 13, 30 },
       { 10, 20 },
       { 9, 16, 18 },
       { 11, 12 },
       { 14, 17, 19 },
       { 22, 26, 30 },
       { 18, 20 },
       { 13, 16, 27 },
       { 18, 19, 21 },
       { 21, 23, 30 },
       { 16, 19, 27 },
       { 17, 24, 25 },
       { 26, 28 },
       { 23 },
       { 22, 23, 25 },
       { 21, 27, 28 },
       { 22, 25 },
       { 24 },
       { 24, 28 },
       { 29 },
       { 26 },
       { 29 },
       { 29 },
       {  },
       {  },
       {  } ];
